unsat
(error "line 2058 column 17: model is not available")
(error "line 2059 column 17: model is not available")
(error "line 2060 column 18: model is not available")
(error "line 2061 column 18: model is not available")
(error "line 2062 column 18: model is not available")
(error "line 2063 column 18: model is not available")
(error "line 2064 column 18: model is not available")
(error "line 2065 column 18: model is not available")
(error "line 2066 column 18: model is not available")
(error "line 2067 column 18: model is not available")
(error "line 2068 column 18: model is not available")
(error "line 2069 column 18: model is not available")
(error "line 2070 column 17: model is not available")
(error "line 2071 column 18: model is not available")
(error "line 2072 column 18: model is not available")
(error "line 2073 column 18: model is not available")
(error "line 2074 column 18: model is not available")
(error "line 2075 column 18: model is not available")
(error "line 2076 column 18: model is not available")
(error "line 2077 column 18: model is not available")
(error "line 2078 column 18: model is not available")
(error "line 2079 column 18: model is not available")
(error "line 2080 column 18: model is not available")
(error "line 2081 column 17: model is not available")
(error "line 2082 column 18: model is not available")
(error "line 2083 column 18: model is not available")
(error "line 2084 column 18: model is not available")
(error "line 2085 column 18: model is not available")
(error "line 2086 column 18: model is not available")
(error "line 2087 column 18: model is not available")
(error "line 2088 column 18: model is not available")
(error "line 2089 column 18: model is not available")
(error "line 2090 column 18: model is not available")
(error "line 2091 column 18: model is not available")
(error "line 2092 column 17: model is not available")
(error "line 2093 column 18: model is not available")
(error "line 2094 column 18: model is not available")
(error "line 2095 column 18: model is not available")
(error "line 2096 column 18: model is not available")
(error "line 2097 column 18: model is not available")
(error "line 2098 column 18: model is not available")
(error "line 2099 column 18: model is not available")
(error "line 2100 column 18: model is not available")
(error "line 2101 column 18: model is not available")
(error "line 2102 column 18: model is not available")
(error "line 2103 column 17: model is not available")
(error "line 2104 column 18: model is not available")
(error "line 2105 column 18: model is not available")
(error "line 2106 column 18: model is not available")
(error "line 2107 column 18: model is not available")
(error "line 2108 column 18: model is not available")
(error "line 2109 column 18: model is not available")
(error "line 2110 column 18: model is not available")
(error "line 2111 column 18: model is not available")
(error "line 2112 column 18: model is not available")
(error "line 2113 column 18: model is not available")
(error "line 2114 column 17: model is not available")
(error "line 2115 column 18: model is not available")
(error "line 2116 column 18: model is not available")
(error "line 2117 column 18: model is not available")
(error "line 2118 column 18: model is not available")
(error "line 2119 column 18: model is not available")
(error "line 2120 column 18: model is not available")
(error "line 2121 column 18: model is not available")
(error "line 2122 column 18: model is not available")
(error "line 2123 column 18: model is not available")
(error "line 2124 column 18: model is not available")
(error "line 2125 column 17: model is not available")
(error "line 2126 column 17: model is not available")
(error "line 2127 column 17: model is not available")
(error "line 2128 column 38: model is not available")
(error "line 2129 column 45: model is not available")
(error "line 2130 column 38: model is not available")
(error "line 2131 column 45: model is not available")
(error "line 2132 column 46: model is not available")
(error "line 2133 column 53: model is not available")
(error "line 2134 column 40: model is not available")
(error "line 2135 column 47: model is not available")
(error "line 2136 column 38: model is not available")
(error "line 2137 column 45: model is not available")
(error "line 2138 column 38: model is not available")
(error "line 2139 column 45: model is not available")
(error "line 2140 column 41: model is not available")
(error "line 2141 column 48: model is not available")
(error "line 2142 column 41: model is not available")
(error "line 2143 column 48: model is not available")
(error "line 2144 column 37: model is not available")
(error "line 2145 column 44: model is not available")
(error "line 2146 column 42: model is not available")
(error "line 2147 column 42: model is not available")
(error "line 2148 column 38: model is not available")
(error "line 2149 column 38: model is not available")
(error "line 2150 column 38: model is not available")
(error "line 2151 column 41: model is not available")
(error "line 2152 column 48: model is not available")
(error "line 2153 column 22: model is not available")
(error "line 2154 column 29: model is not available")
(error "line 2155 column 23: model is not available")
(error "line 2156 column 30: model is not available")
(error "line 2157 column 23: model is not available")
(error "line 2158 column 30: model is not available")
(error "line 2159 column 23: model is not available")
(error "line 2160 column 30: model is not available")
(error "line 2161 column 22: model is not available")
(error "line 2162 column 29: model is not available")
(error "line 2163 column 22: model is not available")
(error "line 2164 column 29: model is not available")
(error "line 2165 column 22: model is not available")
(error "line 2166 column 29: model is not available")
(error "line 2167 column 22: model is not available")
(error "line 2168 column 29: model is not available")
(error "line 2169 column 22: model is not available")
(error "line 2170 column 29: model is not available")
(error "line 2171 column 22: model is not available")
(error "line 2172 column 29: model is not available")
(error "line 2173 column 22: model is not available")
(error "line 2174 column 29: model is not available")
(error "line 2175 column 22: model is not available")
(error "line 2176 column 29: model is not available")
(error "line 2177 column 22: model is not available")
(error "line 2178 column 29: model is not available")
(error "line 2179 column 23: model is not available")
(error "line 2180 column 30: model is not available")
(error "line 2181 column 23: model is not available")
(error "line 2182 column 30: model is not available")
(error "line 2183 column 23: model is not available")
(error "line 2184 column 30: model is not available")
(error "line 2185 column 22: model is not available")
(error "line 2186 column 29: model is not available")
(error "line 2187 column 22: model is not available")
(error "line 2188 column 29: model is not available")
(error "line 2189 column 22: model is not available")
(error "line 2190 column 29: model is not available")
(error "line 2191 column 22: model is not available")
(error "line 2192 column 29: model is not available")
(error "line 2193 column 22: model is not available")
(error "line 2194 column 29: model is not available")
(error "line 2195 column 22: model is not available")
(error "line 2196 column 29: model is not available")
(error "line 2197 column 22: model is not available")
(error "line 2198 column 29: model is not available")
(error "line 2199 column 22: model is not available")
(error "line 2200 column 29: model is not available")
(error "line 2201 column 38: model is not available")
(error "line 2202 column 39: model is not available")
(error "line 2203 column 39: model is not available")
(error "line 2204 column 39: model is not available")
(error "line 2205 column 38: model is not available")
(error "line 2206 column 38: model is not available")
(error "line 2207 column 38: model is not available")
(error "line 2208 column 38: model is not available")
(error "line 2209 column 38: model is not available")
(error "line 2210 column 38: model is not available")
(error "line 2211 column 38: model is not available")
(error "line 2212 column 38: model is not available")
(error "line 2213 column 36: model is not available")
(error "line 2214 column 29: model is not available")
(error "line 2215 column 31: model is not available")
(error "line 2216 column 38: model is not available")
(error "line 2217 column 31: model is not available")
(error "line 2218 column 38: model is not available")
(error "line 2219 column 51: model is not available")
(error "line 2220 column 51: model is not available")
(error "line 2221 column 53: model is not available")
(error "line 2222 column 51: model is not available")
(error "line 2223 column 51: model is not available")
(error "line 2224 column 52: model is not available")
(error "line 2225 column 52: model is not available")
(error "line 2226 column 52: model is not available")
(error "line 2227 column 53: model is not available")
(error "line 2228 column 52: model is not available")
(error "line 2229 column 52: model is not available")
(error "line 2230 column 52: model is not available")
(error "line 2231 column 52: model is not available")
(error "line 2232 column 52: model is not available")
(error "line 2233 column 53: model is not available")
(error "line 2234 column 52: model is not available")
(error "line 2235 column 52: model is not available")
(error "line 2236 column 52: model is not available")
(error "line 2237 column 52: model is not available")
(error "line 2238 column 52: model is not available")
(error "line 2239 column 53: model is not available")
(error "line 2240 column 52: model is not available")
(error "line 2241 column 52: model is not available")
(error "line 2242 column 52: model is not available")
(error "line 2243 column 52: model is not available")
(error "line 2244 column 52: model is not available")
(error "line 2245 column 51: model is not available")
(error "line 2246 column 52: model is not available")
(error "line 2247 column 52: model is not available")
(error "line 2248 column 53: model is not available")
(error "line 2249 column 52: model is not available")
(error "line 2250 column 52: model is not available")
(error "line 2251 column 52: model is not available")
(error "line 2252 column 52: model is not available")
(error "line 2253 column 52: model is not available")
(error "line 2254 column 53: model is not available")
(error "line 2255 column 52: model is not available")
(error "line 2256 column 52: model is not available")
(error "line 2257 column 52: model is not available")
(error "line 2258 column 53: model is not available")
(error "line 2259 column 53: model is not available")
(error "line 2260 column 53: model is not available")
(error "line 2261 column 53: model is not available")
(error "line 2262 column 53: model is not available")
(error "line 2263 column 53: model is not available")
(error "line 2264 column 53: model is not available")
(error "line 2265 column 53: model is not available")
(error "line 2266 column 53: model is not available")
(error "line 2267 column 53: model is not available")
(error "line 2268 column 53: model is not available")
(error "line 2269 column 53: model is not available")
(error "line 2270 column 52: model is not available")
(error "line 2271 column 52: model is not available")
(error "line 2272 column 52: model is not available")
(error "line 2273 column 52: model is not available")
(error "line 2274 column 52: model is not available")
(error "line 2275 column 52: model is not available")
(error "line 2276 column 52: model is not available")
(error "line 2277 column 52: model is not available")
(error "line 2278 column 52: model is not available")
(error "line 2279 column 52: model is not available")
(error "line 2280 column 52: model is not available")
(error "line 2281 column 52: model is not available")
(error "line 2282 column 52: model is not available")
(error "line 2283 column 52: model is not available")
(error "line 2284 column 52: model is not available")
(error "line 2285 column 52: model is not available")
(error "line 2286 column 52: model is not available")
(error "line 2287 column 52: model is not available")
(error "line 2288 column 52: model is not available")
(error "line 2289 column 52: model is not available")
(error "line 2290 column 52: model is not available")
(error "line 2291 column 52: model is not available")
(error "line 2292 column 52: model is not available")
(error "line 2293 column 52: model is not available")
(error "line 2294 column 51: model is not available")
(error "line 2295 column 51: model is not available")
(error "line 2296 column 50: model is not available")
(error "line 2297 column 56: model is not available")
(error "line 2298 column 56: model is not available")
(error "line 2299 column 55: model is not available")
(error "line 2300 column 56: model is not available")
(error "line 2301 column 55: model is not available")
(error "line 2302 column 55: model is not available")
(error "line 2303 column 55: model is not available")
(error "line 2304 column 46: model is not available")
(error "line 2305 column 46: model is not available")
(error "line 2306 column 54: model is not available")
(error "line 2307 column 54: model is not available")
(error "line 2308 column 54: model is not available")
(error "line 2309 column 40: model is not available")
(error "line 2310 column 40: model is not available")
(error "line 2311 column 41: model is not available")
(error "line 2312 column 41: model is not available")
(error "line 2313 column 50: model is not available")
(error "line 2314 column 50: model is not available")
(error "line 2315 column 43: model is not available")
(error "line 2316 column 43: model is not available")
(error "line 2317 column 30: model is not available")
(error "line 2318 column 36: model is not available")
(error "line 2319 column 30: model is not available")
(error "line 2320 column 36: model is not available")
(error "line 2321 column 30: model is not available")
(error "line 2322 column 18: model is not available")
(error "line 2323 column 25: model is not available")
(error "line 2324 column 18: model is not available")
(error "line 2325 column 25: model is not available")
(error "line 2326 column 18: model is not available")
(error "line 2327 column 25: model is not available")
(error "line 2328 column 18: model is not available")
(error "line 2329 column 25: model is not available")
(error "line 2330 column 18: model is not available")
(error "line 2331 column 25: model is not available")
(error "line 2333 column 10: model is not available")
(:added-eqs                      302
 :arith-bound-propagations-cheap 96
 :arith-bound-propagations-lp    280
 :arith-conflicts                1
 :arith-lower                    143
 :arith-make-feasible            74
 :arith-max-columns              164
 :arith-max-rows                 127
 :arith-propagations             96
 :arith-upper                    103
 :binary-propagations            929
 :bv-bit2core                    2255
 :bv-dynamic-diseqs              25
 :bv->core-eq                    2
 :conflicts                      37
 :decisions                      185
 :del-clause                     164
 :eliminated-applications        18
 :eliminated-vars                12
 :max-memory                     4.71
 :memory                         3.28
 :minimized-lits                 12
 :mk-bool-var                    921
 :mk-clause                      677
 :num-allocs                     2021711
 :num-checks                     1
 :propagations                   1441
 :rlimit-count                   110644
 :time                           0.02
 :total-time                     0.03)

real	0m0.030s
user	0m0.025s
sys	0m0.004s
State: RE Run_time: 0.031546831130981445